Minimize
obj1:+18 x(1) -16 x(2) +0 x(3) -16 x(4) +2 x(5) +8 x(6) -14 x(7) +11 x(8) -4 x(9) +16 x(10) -8 x(11) -18 x(12) -12 x(13) -17 x(14) +18 x(15) -20 x(16) -16 x(17) -20 x(18) -12 x(19) -20 x(20)
Subject To
c1:+16 x(1) +9 x(2) +19 x(3) +17 x(4) +1 x(5) +13 x(6) +16 x(7) +8 x(8) +5 x(9) +10 x(10) +8 x(11) +14 x(12) +13 x(13) +16 x(14) +1 x(15) +6 x(16) +18 x(17) +2 x(18) +6 x(19) +11 x(20)  <=  92
c2:+19 x(1) +2 x(2) +20 x(3) +16 x(4) +13 x(5) +12 x(6) +12 x(7) +20 x(8) +14 x(9) +13 x(10) +17 x(11) +8 x(12) +7 x(13) +9 x(14) +2 x(15) +13 x(16) +10 x(17) +4 x(18) +3 x(19) +4 x(20)  <=  73
c3:+10 x(1) +2 x(2) +8 x(3) +20 x(4) +12 x(5) +10 x(6) +19 x(7) +6 x(8) +20 x(9) +11 x(10) +17 x(11) +7 x(12) +10 x(13) +1 x(14) +19 x(15) +15 x(16) +20 x(17) +19 x(18) +10 x(19) +18 x(20)  <=  77
c4:+17 x(1) +16 x(2) +13 x(3) +5 x(4) +8 x(5) +12 x(6) +3 x(7) +15 x(8) +13 x(9) +17 x(10) +14 x(11) +7 x(12) +15 x(13) +3 x(14) +11 x(15) +10 x(16) +17 x(17) +17 x(18) +9 x(19) +14 x(20)  <=  59
c5:+3 x(1) +14 x(2) +2 x(3) +19 x(4) +5 x(5) +9 x(6) +6 x(7) +11 x(8) +2 x(9) +2 x(10) +20 x(11) +19 x(12) +18 x(13) +6 x(14) +8 x(15) +17 x(16) +2 x(17) +15 x(18) +8 x(19) +17 x(20)  <=  82
c6:+16 x(1) +1 x(2) +5 x(3) +13 x(4) +16 x(5) +2 x(6) +2 x(7) +4 x(8) +8 x(9) +10 x(10) +19 x(11) +10 x(12) +2 x(13) +18 x(14) +8 x(15) +4 x(16) +5 x(17) +20 x(18) +18 x(19) +16 x(20)  <=  99
c7:+19 x(1) +12 x(2) +1 x(3) +3 x(4) +3 x(5) +6 x(6) +11 x(7) +14 x(8) +4 x(9) +12 x(10) +3 x(11) +9 x(12) +2 x(13) +13 x(14) +4 x(15) +3 x(16) +17 x(17) +20 x(18) +9 x(19) +17 x(20)  <=  77
c8:+17 x(1) +15 x(2) +10 x(3) +6 x(4) +10 x(5) +12 x(6) +16 x(7) +2 x(8) +5 x(9) +4 x(10) +13 x(11) +10 x(12) +13 x(13) +7 x(14) +3 x(15) +1 x(16) +9 x(17) +20 x(18) +6 x(19) +13 x(20)  <=  74
c9:+6 x(1) +3 x(2) +4 x(3) +16 x(4) +1 x(5) +13 x(6) +6 x(7) +4 x(8) +2 x(9) +13 x(10) +10 x(11) +19 x(12) +16 x(13) +6 x(14) +8 x(15) +4 x(16) +10 x(17) +4 x(18) +1 x(19) +15 x(20)  <=  90
c10:+5 x(1) +5 x(2) +20 x(3) +17 x(4) +4 x(5) +19 x(6) +5 x(7) +1 x(8) +19 x(9) +2 x(10) +2 x(11) +5 x(12) +20 x(13) +9 x(14) +7 x(15) +11 x(16) +20 x(17) +20 x(18) +5 x(19) +14 x(20)  <=  54
c11:+11 x(1) +17 x(2) +9 x(3) +3 x(4) +10 x(5) +20 x(6) +7 x(7) +18 x(8) +16 x(9) +12 x(10) +18 x(11) +18 x(12) +3 x(13) +19 x(14) +16 x(15) +11 x(16) +20 x(17) +11 x(18) +5 x(19) +7 x(20)  <=  94
c12:+8 x(1) +3 x(2) +20 x(3) +10 x(4) +17 x(5) +2 x(6) +10 x(7) +17 x(8) +8 x(9) +17 x(10) +10 x(11) +1 x(12) +8 x(13) +19 x(14) +10 x(15) +8 x(16) +16 x(17) +2 x(18) +1 x(19) +11 x(20)  <=  50
c13:+10 x(1) +18 x(2) +15 x(3) +5 x(4) +3 x(5) +14 x(6) +15 x(7) +3 x(8) +17 x(9) +10 x(10) +16 x(11) +7 x(12) +14 x(13) +11 x(14) +10 x(15) +7 x(16) +12 x(17) +7 x(18) +15 x(19) +18 x(20)  <=  76
c14:+20 x(1) +19 x(2) +12 x(3) +19 x(4) +15 x(5) +13 x(6) +11 x(7) +9 x(8) +16 x(9) +9 x(10) +2 x(11) +16 x(12) +8 x(13) +13 x(14) +3 x(15) +1 x(16) +19 x(17) +18 x(18) +1 x(19) +2 x(20)  <=  84
c15:+13 x(1) +1 x(2) +11 x(3) +7 x(4) +14 x(5) +10 x(6) +8 x(7) +3 x(8) +13 x(9) +3 x(10) +6 x(11) +7 x(12) +18 x(13) +15 x(14) +18 x(15) +17 x(16) +10 x(17) +17 x(18) +13 x(19) +11 x(20)  <=  78
c16:+19 x(1) +8 x(2) +15 x(3) +18 x(4) +1 x(5) +8 x(6) +19 x(7) +12 x(8) +8 x(9) +1 x(10) +14 x(11) +13 x(12) +6 x(13) +1 x(14) +14 x(15) +13 x(16) +4 x(17) +1 x(18) +9 x(19) +9 x(20)  <=  74
c17:+10 x(1) +4 x(2) +1 x(3) +6 x(4) +10 x(5) +10 x(6) +20 x(7) +19 x(8) +8 x(9) +16 x(10) +3 x(11) +10 x(12) +3 x(13) +12 x(14) +17 x(15) +9 x(16) +7 x(17) +13 x(18) +5 x(19) +19 x(20)  <=  66
c18:+9 x(1) +11 x(2) +16 x(3) +18 x(4) +20 x(5) +14 x(6) +13 x(7) +6 x(8) +2 x(9) +16 x(10) +13 x(11) +1 x(12) +14 x(13) +1 x(14) +14 x(15) +5 x(16) +6 x(17) +17 x(18) +14 x(19) +13 x(20)  <=  80
c19:+16 x(1) +3 x(2) +19 x(3) +4 x(4) +3 x(5) +20 x(6) +3 x(7) +20 x(8) +7 x(9) +6 x(10) +8 x(11) +12 x(12) +5 x(13) +9 x(14) +20 x(15) +17 x(16) +12 x(17) +5 x(18) +7 x(19) +20 x(20)  <=  96
c20:+15 x(1) +1 x(2) +1 x(3) +16 x(4) +15 x(5) +2 x(6) +13 x(7) +7 x(8) +11 x(9) +3 x(10) +16 x(11) +13 x(12) +18 x(13) +10 x(14) +20 x(15) +17 x(16) +2 x(17) +2 x(18) +3 x(19) +12 x(20)  <=  84
obj2:+6 x(1) +1 x(2) -10 x(3) -13 x(4) -17 x(5) -5 x(6) -20 x(7) +4 x(8) -1 x(9) -8 x(10) +10 x(11) +14 x(12) -10 x(13) +1 x(14) -2 x(15) -7 x(16) +14 x(17) +20 x(18) +5 x(19) -13 x(20)  <=  0
Binaries
x(1) x(2) x(3) x(4) x(5) x(6) x(7) x(8) x(9) x(10) x(11) x(12) x(13) x(14) x(15) x(16) x(17) x(18) x(19) x(20)
End
